
Gurobi 13.0.1 (linux64) logging started Thu Mar 26 20:24:49 2026

Set parameter LogFile to value "logs_sparse/75B_6F_robust_gamma_0d75_theta_0d05199999999999999_2026-03-26_20h24m18s.log"
Set parameter MIPGap to value 0.005
Set parameter OptimalityTol to value 0.005
Gurobi Optimizer version 13.0.1 build v13.0.1rc0 (linux64 - "Linux Mint 22")

CPU model: 12th Gen Intel(R) Core(TM) i7-12700, instruction set [SSE2|AVX|AVX2]
Thread count: 20 physical cores, 20 logical processors, using up to 20 threads

Non-default parameters:
TimeLimit  3600
SoftMemLimit  12
MIPGap  0.005
OptimalityTol  0.005

Optimize a model with 90326 rows, 1733346 columns and 5286408 nonzeros (Max)
Model fingerprint: 0xc448168a
Model has 1665086 linear objective coefficients
Variable types: 23346 continuous, 1710000 integer (1710000 binary)
Coefficient statistics:
  Matrix range     [3e-05, 1e+05]
  Objective range  [1e+00, 3e+03]
  Bounds range     [1e+00, 1e+05]
  RHS range        [1e-02, 1e+05]

Presolve removed 46314 rows and 1252620 columns
Presolve time: 3.22s
Presolved: 44012 rows, 480726 columns, 1506877 nonzeros
Variable types: 11328 continuous, 469398 integer (469398 binary)
Found heuristic solution: objective -3.90470e+08
Deterministic concurrent LP optimizer: primal simplex, dual simplex, and barrier
Showing barrier log only...

Root barrier log...

Ordering time: 0.95s

Barrier statistics:
 AA' NZ     : 7.621e+05
 Factor NZ  : 6.411e+06 (roughly 260 MB of memory)
 Factor Ops : 1.809e+09 (less than 1 second per iteration)
 Threads    : 18

                  Objective                Residual
Iter       Primal          Dual         Primal    Dual     Compl     Time
   0  -1.43665076e+12  1.90875371e+09  2.08e+07 1.02e+03  8.71e+06     6s
   1  -1.85799232e+11  3.62687246e+09  2.70e+06 2.89e-11  1.15e+06     6s
   2  -1.87673220e+09  2.76657994e+09  2.70e+04 4.55e-11  1.43e+04     6s
   3  -2.97392580e+08  1.86367756e+09  7.03e+03 5.46e-11  4.40e+03     6s
   4   1.22325171e+08  9.76244535e+08  1.52e+03 3.21e-11  1.25e+03     6s
   5   2.03077711e+08  5.46699822e+08  4.58e+02 3.72e-11  4.47e+02     6s
   6   2.21523255e+08  3.77263079e+08  2.18e+02 4.23e-11  2.02e+02     6s
   7   2.30414041e+08  3.16003612e+08  1.01e+02 4.75e-11  1.06e+02     6s
   8   2.34476487e+08  2.86333165e+08  4.96e+01 3.73e-11  6.21e+01     7s
   9   2.36967512e+08  2.52976535e+08  1.86e+01 4.65e-11  1.95e+01     7s
  10   2.37749177e+08  2.45463847e+08  9.58e+00 3.80e-11  9.21e+00     7s
  11   2.38168649e+08  2.41352755e+08  4.70e+00 4.34e-11  3.67e+00     7s
  12   2.38515764e+08  2.40502430e+08  1.01e+00 4.55e-11  2.09e+00     7s
  13   2.38641203e+08  2.39533374e+08  2.04e-01 4.18e-11  9.11e-01     7s
  14   2.38714224e+08  2.39317435e+08  9.60e-02 4.48e-11  6.14e-01     7s
  15   2.38779365e+08  2.39019914e+08  3.53e-02 4.75e-11  2.45e-01     7s
  16   2.38816168e+08  2.38941548e+08  1.25e-02 4.58e-11  1.28e-01     7s
  17   2.38835700e+08  2.38888004e+08  2.56e-03 5.16e-11  5.32e-02     8s
  18   2.38838898e+08  2.38874128e+08  1.46e-03 5.39e-11  3.58e-02     8s
  19   2.38842066e+08  2.38865615e+08  4.63e-04 5.53e-11  2.39e-02     8s
  20   2.38842515e+08  2.38855944e+08  3.27e-04 4.77e-11  1.37e-02     8s
  21   2.38843206e+08  2.38853018e+08  1.79e-04 4.77e-11  9.98e-03     8s
  22   2.38843584e+08  2.38850526e+08  1.15e-04 4.93e-11  7.06e-03     8s
  23   2.38843675e+08  2.38848464e+08  1.00e-04 5.30e-11  4.87e-03     9s
  24   2.38843808e+08  2.38847603e+08  8.05e-05 5.47e-11  3.86e-03     9s
  25   2.38844018e+08  2.38846978e+08  4.20e-05 6.46e-11  3.01e-03     9s
  26   2.38844160e+08  2.38846073e+08  1.99e-05 5.00e-11  1.95e-03     9s
  27   2.38844226e+08  2.38845377e+08  1.10e-05 4.96e-11  1.17e-03     9s
  28   2.38844274e+08  2.38844999e+08  6.39e-06 4.84e-11  7.37e-04     9s
  29   2.38844293e+08  2.38844820e+08  4.32e-06 4.37e-11  5.36e-04     9s
  30   2.38844301e+08  2.38844601e+08  3.45e-06 4.46e-11  3.05e-04     9s
  31   2.38844327e+08  2.38844515e+08  1.36e-06 5.80e-11  1.92e-04     9s
  32   2.38844333e+08  2.38844428e+08  9.47e-07 3.87e-11  9.65e-05    10s
  33   2.38844340e+08  2.38844377e+08  5.16e-07 5.23e-11  3.79e-05    10s
  34   2.38844344e+08  2.38844371e+08  2.74e-07 4.32e-11  2.68e-05    10s
  35   2.38844349e+08  2.38844359e+08  5.22e-08 4.46e-11  9.97e-06    10s
  36   2.38844350e+08  2.38844353e+08  8.48e-09 3.89e-11  2.42e-06    10s
  37   2.38844350e+08  2.38844351e+08  8.96e-10 3.68e-11  1.27e-07    10s
  38   2.38844351e+08  2.38844351e+08  1.43e-09 3.62e-11  1.16e-10    10s

Barrier solved model in 38 iterations and 10.13 seconds (13.68 work units)
Optimal objective 2.38844351e+08


Root crossover log...

   16320 DPushes remaining with DInf 9.4088202e+00                10s
       0 DPushes remaining with DInf 1.7226285e+02                11s

    8949 PPushes remaining with PInf 4.2256786e-03                11s
       0 PPushes remaining with PInf 0.0000000e+00                11s

  Push phase complete: Pinf 0.0000000e+00, Dinf 4.6463624e+04     11s


Root simplex log...

Iteration    Objective       Primal Inf.    Dual Inf.      Time
   23104    2.3884435e+08   0.000000e+00   4.646352e+04     11s
   31960    2.3884435e+08   0.000000e+00   2.954491e+02     15s
   32040    2.3884435e+08   0.000000e+00   0.000000e+00     15s
Crossover time: 5.16 seconds (8.44 work units)
Concurrent spin time: 1.29s (can be avoided by choosing Method=3)

Solved with barrier

Root relaxation: objective 2.388444e+08, 32040 iterations, 12.52 seconds (15.17 work units)

    Nodes    |    Current Node    |     Objective Bounds      |     Work
 Expl Unexpl |  Obj  Depth IntInf | Incumbent    BestBd   Gap | It/Node Time

     0     0 2.3884e+08    0 7337 -3.905e+08 2.3884e+08   161%     -   21s
H    0     0                    7.762772e+07 2.3884e+08   208%     -   22s
H    0     0                    2.049657e+08 2.3884e+08  16.5%     -   22s
H    0     0                    2.059865e+08 2.3884e+08  16.0%     -   24s
H    0     0                    2.060157e+08 2.3884e+08  15.9%     -   29s
H    0     0                    2.063459e+08 2.3884e+08  15.7%     -   30s
H    0     0                    2.063469e+08 2.3884e+08  15.7%     -   37s
H    0     0                    2.063787e+08 2.3884e+08  15.7%     -   44s
H    0     0                    2.064716e+08 2.3884e+08  15.7%     -   45s
H    0     0                    2.066985e+08 2.3884e+08  15.6%     -   45s
H    0     0                    2.069110e+08 2.3884e+08  15.4%     -   45s
H    0     0                    2.070170e+08 2.3884e+08  15.4%     -   45s
H    0     0                    2.070177e+08 2.3884e+08  15.4%     -   46s
H    0     0                    2.072101e+08 2.3884e+08  15.3%     -   46s
H    0     0                    2.072177e+08 2.3884e+08  15.3%     -   46s
H    0     0                    2.286320e+08 2.3884e+08  4.47%     -   50s
H    0     0                    2.288271e+08 2.3884e+08  4.38%     -   52s
     0     0 2.3884e+08    0 7398 2.2883e+08 2.3884e+08  4.38%     -  667s
H    0     0                    2.289610e+08 2.3884e+08  4.32%     -  696s
H    0     0                    2.297654e+08 2.3884e+08  3.95%     -  728s
H    0     0                    2.297675e+08 2.3884e+08  3.95%     -  750s
H    0     0                    2.299938e+08 2.3884e+08  3.85%     -  764s
H    0     0                    2.299941e+08 2.3884e+08  3.85%     -  801s
H    0     0                    2.299973e+08 2.3884e+08  3.85%     -  832s
H    0     0                    2.299974e+08 2.3884e+08  3.85%     -  934s
     0     0 2.3884e+08    0 7398 2.3000e+08 2.3884e+08  3.85%     - 1219s
     0     0 2.3884e+08    0 7736 2.3000e+08 2.3884e+08  3.85%     - 1890s
H    0     0                    2.305638e+08 2.3884e+08  3.59%     - 1895s
H    0     0                    2.307585e+08 2.3884e+08  3.50%     - 1921s
H    0     0                    2.307820e+08 2.3884e+08  3.49%     - 1927s
H    0     0                    2.307825e+08 2.3884e+08  3.49%     - 1942s
H    0     0                    2.307836e+08 2.3884e+08  3.49%     - 1947s
H    0     0                    2.307837e+08 2.3884e+08  3.49%     - 1974s
H    0     0                    2.307893e+08 2.3884e+08  3.49%     - 2049s
H    0     0                    2.307906e+08 2.3884e+08  3.49%     - 2055s
     0     0 2.3884e+08    0 7857 2.3079e+08 2.3884e+08  3.49%     - 2079s
     0     0 2.3884e+08    0 8423 2.3079e+08 2.3884e+08  3.49%     - 2717s
     0     0 2.3884e+08    0 8178 2.3079e+08 2.3884e+08  3.49%     - 2761s
     0     0 2.3884e+08    0 10692 2.3079e+08 2.3884e+08  3.49%     - 3222s
     0     0 2.3884e+08    0 10692 2.3079e+08 2.3884e+08  3.49%     - 3225s
     0     0 2.3884e+08    0 9464 2.3079e+08 2.3884e+08  3.49%     - 3227s

Cutting planes:
  MIR: 6
  Flow cover: 55
  RLT: 3803
  Relax-and-lift: 50

Explored 1 nodes (1212199 simplex iterations) in 3600.07 seconds (6613.78 work units)
Thread count was 20 (of 20 available processors)

Solution count 10: 2.30791e+08 2.30789e+08 2.30784e+08 ... 2.29997e+08

Time limit reached
Best objective 2.307906472023e+08, best bound 2.388433778823e+08, gap 3.4892%
